
Gurobi 10.0.1 (linux64) logging started Tue Sep 12 18:58:09 2023

Set parameter LogFile to value "./log/lipa40a.log"
Set parameter TimeLimit to value 180
Gurobi Optimizer version 10.0.1 build v10.0.1rc0 (linux64)

CPU model: 12th Gen Intel(R) Core(TM) i5-12600KF, instruction set [SSE2|AVX|AVX2]
Thread count: 8 physical cores, 16 logical processors, using up to 16 threads

Optimize a model with 80 rows, 1600 columns and 3200 nonzeros
Model fingerprint: 0x3e32f0dd
Model has 1216800 quadratic objective terms
Variable types: 0 continuous, 1600 integer (1600 binary)
Coefficient statistics:
  Matrix range     [1e+00, 1e+00]
  Objective range  [0e+00, 0e+00]
  QObjective range [6e+00, 2e+02]
  Bounds range     [1e+00, 1e+00]
  RHS range        [1e+00, 1e+00]
Found heuristic solution: objective 32867.000000
Presolve removed 0 rows and 0 columns (presolve time = 13s) ...
Presolve time: 12.55s
Presolved: 80 rows, 1600 columns, 3200 nonzeros
Presolved model has 1218400 quadratic objective terms
Variable types: 0 continuous, 1600 integer (1600 binary)

Root simplex log...

Iteration    Objective       Primal Inf.    Dual Inf.      Time
       0    0.0000000e+00   0.000000e+00   5.782204e+04     13s
    1450   -1.4774502e+05   0.000000e+00   4.785908e+02     15s
    1680   -1.4850695e+05   0.000000e+00   0.000000e+00     17s

Root relaxation: objective -1.485070e+05, 1680 iterations, 4.07 seconds (8.59 work units)

    Nodes    |    Current Node    |     Objective Bounds      |     Work
 Expl Unexpl |  Obj  Depth IntInf | Incumbent    BestBd   Gap | It/Node Time

H    0     0                    32669.000000    0.00000   100%     -   16s
H    0     0                    32642.000000    0.00000   100%     -   16s
H    0     0                    32555.000000    0.00000   100%     -   16s
H    0     0                    32533.000000    0.00000   100%     -   16s
     0     0    0.00000    0 1600 32533.0000    0.00000   100%     -   16s
H    0     0                    32416.000000    0.00000   100%     -   17s
     0     0    0.00000    0 1600 32416.0000    0.00000   100%     -   17s
H    0     0                    32242.000000    0.00000   100%     -   23s
H    0     0                    32228.000000    0.00000   100%     -   23s
     0     2    0.00000    0 1600 32228.0000    0.00000   100%     -   24s
     3     8    0.00000    2 1598 32228.0000    0.00000   100%  27.3   25s
H   31    40                    32167.000000    0.00000   100%  18.7   28s
H   38    40                    32159.000000    0.00000   100%  15.6   28s
    87    96    0.00000   13 1587 32159.0000    0.00000   100%   8.0   30s
H   89    96                    32156.000000    0.00000   100%   7.8   30s
H   93    96                    32150.000000    0.00000   100%   7.6   30s
   193   210    0.00000   26 1574 32150.0000    0.00000   100%   4.7   35s
   273   274    0.00000   26 1600 32150.0000    0.00000   100%   3.9   51s
   273   275    0.00000   26 1600 32150.0000    0.00000   100%   5.6  106s
   273   275    0.00000   26  133 32150.0000    0.00000   100%   5.6  110s
   273   275    0.00000   26  134 32150.0000    0.00000   100%   5.6  115s
   273   275    0.00000   26  131 32150.0000    0.00000   100%   5.6  120s
   280   289    0.00000   28  135 32150.0000    0.00000   100%   115  126s
   359   348    0.00000   34  134 32150.0000    0.00000   100%   210  130s
   471   416    0.00000   44  135 32150.0000    0.00000   100%   244  140s
H  611   495                    32139.000000    0.00000   100%   253  144s
H  612   481                    32131.000000    0.00000   100%   253  144s
   671   573    0.00000   63  131 32131.0000    0.00000   100%   253  145s
  1005   861   98.63804   92  133 32131.0000    0.00000   100%   264  150s
  1491  1227    0.00000  157  133 32131.0000    0.00000   100%   249  155s
H 1492  1227                    32118.000000    0.00000   100%   249  155s
  1879  1781    0.00000  188  132 32118.0000    0.00000   100%   236  164s
  2101  1975  248.16850  195  125 32118.0000    0.00000   100%   239  166s
  2538  2158 1271.00000  228  114 32118.0000    0.00000   100%   247  174s
H 2540  2158                    32111.000000    0.00000   100%   247  174s
  2550  2472  352.00000  228  116 32111.0000    0.00000   100%   249  177s
  2872  2735  685.12818  246  119 32111.0000    0.00000   100%   243  180s

Cutting planes:
  MIR: 68
  StrongCG: 16

Explored 3179 nodes (763067 simplex iterations) in 180.02 seconds (262.63 work units)
Thread count was 16 (of 16 available processors)

Solution count 10: 32111 32118 32131 ... 32242

Time limit reached
Best objective 3.211100000000e+04, best bound 1.455191522837e-10, gap 100.0000%
